Li8 Ni9 S10
1.0
   4.0702453737733366    0.0000000000000000    0.0000000000000002
   0.0407958623250987    4.0781138568411244    0.0000000000000002
   0.0000000000000000    0.0000000000000000   32.1196780799912105
Li Ni S
8 9 10
direct
   0.5347831743126830    0.0907587099422675    0.7153510396584181 Li
   0.0347831722732277    0.5907587101602265    0.7153510401808594 Li
   0.0347841448299293    0.5907587100305646    0.6266622618060180 Li
   0.5347841427904743    0.0907587102485232    0.6266622623284593 Li
   0.5347851153471757    0.0907587101188611    0.5379734839536180 Li
   0.0347851133077204    0.5907587103368203    0.5379734844760594 Li
   0.0347860858644218    0.5907587102071575    0.4492847061012181 Li
   0.5347860838249661    0.0907587104251176    0.4492847066236594 Li
   0.5212321956418949    0.2626338863440334    0.0633001938640952 Ni
   0.7833254955348494    0.5235764027935037    0.1249928029179049 Ni
   0.2626718190537503    0.7721801082100844    0.0309018529893727 Ni
   0.5318526682885449    0.2719296673952057    0.1899306193048476 Ni
   0.7939459681814993    0.5328721838446763    0.2516232283586571 Ni
   0.2732922917004001    0.7814758892612567    0.1575322784301251 Ni
   0.5424731409351951    0.2812254484463780    0.3165610447455999 Ni
   0.8045664408281492    0.5421679648958481    0.3782536537994093 Ni
   0.2839127643470500    0.7907716703124289    0.2841627038708773 Ni
   0.2713093756288030    0.2691796859823421    0.0000000000000000 S
   0.7653153170645193    0.7633303844499078    0.0618577749547966 S
   0.2819298482754529    0.2784754670335142    0.1266304254407523 S
   0.7759357897111687    0.7726261655010798    0.1884882003955488 S
   0.2925503209221031    0.2877712480846868    0.2532608508815045 S
   0.7865562623578187    0.7819219465522522    0.3151186258363011 S
   0.5347836585551939    0.5907587101392747    0.6710066509859941 S
   0.0347846290724396    0.0907587102275721    0.5823178731335942 S
   0.5347855995896862    0.5907587103158688    0.4936290952811940 S
   0.0347865701069323    0.0907587104041662    0.4049403174287942 S
