Li24 Mn3 Co3 Ni3 O18 F15
1.0
   5.0406060000000004    0.0000000000000000    0.0000000000000003
   2.5203029999999997    4.4271190000000011    0.0000000000000003
   0.0000000000000000    0.0000000000000000   37.8401630714205623
Li Mn Co Ni O F
24 3 3 3 18 15
direct
   0.6420677723290171    0.3330519999999996    0.0935807842993807 Li
   0.3090207723290168    0.9991460000000001    0.0935807842993807 Li
   0.9742517723290169    0.6686839999999998    0.0935807842993807 Li
   0.9702279181527536    0.3330519999999996    0.2216192917142514 Li
   0.6371809181527537    0.9991460000000001    0.2216192917142514 Li
   0.3024119181527531    0.6686839999999998    0.2216192917142514 Li
   0.2983880639764900    0.3330519999999996    0.3496577991291223 Li
   0.9653410639764899    0.9991460000000001    0.3496577991291223 Li
   0.6305720639764898    0.6686839999999998    0.3496577991291223 Li
   0.9002931458968000    0.7644324210687113    0.6586147997157856 Li
   0.2336264792301335    0.0977657544020447    0.6586147997157856 Li
   0.5669598125634667    0.4310990877353780    0.6586147997157856 Li
   0.2336264792301335    0.4310990877353780    0.5963114803965935 Li
   0.5669598125634667    0.7644324210687113    0.5963114803965935 Li
   0.9002931458968000    0.0977657544020447    0.5963114803965937 Li
   0.5669598125634667    0.0977657544020447    0.5340081610774016 Li
   0.9002931458968000    0.4310990877353780    0.5340081610774016 Li
   0.2336264792301332    0.7644324210687115    0.5340081610774017 Li
   0.9002931458968000    0.7644324210687113    0.4717048417582096 Li
   0.2336264792301330    0.0977657544020447    0.4717048417582096 Li
   0.5669598125634667    0.4310990877353781    0.4717048417582096 Li
   0.2336264792301332    0.4310990877353783    0.4094015224390176 Li
   0.5669598125634667    0.7644324210687113    0.4094015224390176 Li
   0.9002931458967998    0.0977657544020447    0.4094015224390176 Li
   0.3105756994171487    0.6678759999999997    0.0295615305919453 Mn
   0.6387358452408849    0.6678759999999997    0.1576000380068161 Mn
   0.9668959910646211    0.6678759999999997    0.2856385454216868 Mn
   0.9798196994171487    0.3293879999999998    0.0295615305919453 Co
   0.3079798452408848    0.3293879999999998    0.1576000380068161 Co
   0.6361399910646210    0.3293879999999998    0.2856385454216868 Co
   0.6445976994171490    0.9998319999999996    0.0295615305919453 Ni
   0.9727578452408852    0.9998319999999996    0.1576000380068161 Ni
   0.3009179910646211    0.9998319999999996    0.2856385454216868 Ni
   0.3037680849493640    0.9846439999999999    0.0000000000000000 O
   0.9994819810451908    0.6607230000000002    0.0006460823084154 O
   0.6378143514911255    0.3556429999999997    0.0006864144382510 O
   0.6288224177891062    0.6607229999999999    0.0584769788754752 O
   0.2955700473431722    0.3556429999999998    0.0584366467456396 O
   0.0006153138849325    0.9846440000000001    0.0591230611838907 O
   0.6319282307731007    0.9846439999999999    0.1280385074148708 O
   0.3276421268689271    0.6607230000000002    0.1286845897232862 O
   0.9659744973148620    0.3556429999999997    0.1287249218531218 O
   0.9569825636128422    0.6607229999999999    0.1865154862903460 O
   0.6237301931669079    0.3556429999999998    0.1864751541605103 O
   0.3287754597086689    0.9846440000000001    0.1871615685987614 O
   0.9600883765968369    0.9846439999999999    0.2560770148297415 O
   0.6558022726926636    0.6607230000000002    0.2567230971381569 O
   0.2941346431385983    0.3556429999999997    0.2567634292679926 O
   0.2851427094365788    0.6607229999999999    0.3145539937052167 O
   0.9518903389906448    0.3556429999999998    0.3145136615753812 O
   0.6569356055324052    0.9846440000000001    0.3152000760136323 O
   0.2336264792301335    0.7644324210687112    0.6274631400561895 F
   0.5669598125634667    0.0977657544020447    0.6274631400561895 F
   0.9002931458968000    0.4310990877353778    0.6274631400561895 F
   0.5669598125634667    0.4310990877353780    0.5651598207369976 F
   0.9002931458968000    0.7644324210687115    0.5651598207369977 F
   0.2336264792301332    0.0977657544020447    0.5651598207369976 F
   0.9002931458967998    0.0977657544020447    0.5028565014178056 F
   0.2336264792301330    0.4310990877353780    0.5028565014178056 F
   0.5669598125634663    0.7644324210687113    0.5028565014178057 F
   0.2336264792301330    0.7644324210687113    0.4405531820986136 F
   0.5669598125634663    0.0977657544020447    0.4405531820986136 F
   0.9002931458967998    0.4310990877353781    0.4405531820986136 F
   0.5669598125634663    0.4310990877353781    0.3782498627794216 F
   0.9002931458967998    0.7644324210687113    0.3782498627794216 F
   0.2336264792301332    0.0977657544020447    0.3782498627794216 F
