Li64 P8 S32
1.0
   6.1113985299999998    0.0000000000000000    0.0000000000000004
  -0.0000000000000008   13.3479004900000007    0.0000000000000008
   0.0000000000000000    0.0000000000000000   36.9942138319164826
Li P S
64 8 32
direct
   0.2964062099999998    0.1586581500000000    0.0521626509935842 Li
   0.7964062099999999    0.3413418500000001    0.0541040804164058 Li
   0.7035937899999999    0.8413418500000003    0.1584293824035741 Li
   0.2035937899999999    0.6586581500000002    0.1603708118263957 Li
   0.7035937899999999    0.8413418500000003    0.0541040804164058 Li
   0.2035937899999999    0.6586581500000002    0.0521626509935842 Li
   0.2964062099999998    0.1586581500000001    0.1603708118263957 Li
   0.7964062100000000    0.3413418500000001    0.1584293824035741 Li
   0.2187462599999998    0.4286963400000000    0.1062667314099899 Li
   0.7187462599999997    0.0713036600000003    0.0000000000000000 Li
   0.7812537399999999    0.5713036600000002    0.0000000000000000 Li
   0.2812537400000000    0.9286963400000000    0.1062667314099899 Li
   0.2964062099999998    0.1586581500000001    0.2646961138135638 Li
   0.7964062099999998    0.3413418500000002    0.2666375432363855 Li
   0.7035937899999998    0.8413418500000003    0.3709628452235536 Li
   0.2035937899999998    0.6586581500000002    0.3729042746463752 Li
   0.7035937899999998    0.8413418500000003    0.2666375432363855 Li
   0.2035937899999998    0.6586581500000002    0.2646961138135638 Li
   0.2964062099999997    0.1586581500000001    0.3729042746463752 Li
   0.7964062099999998    0.3413418500000002    0.3709628452235536 Li
   0.2187462599999997    0.4286963400000000    0.3188001942299695 Li
   0.7187462599999999    0.0713036600000003    0.2125334628199796 Li
   0.7812537400000000    0.5713036600000002    0.2125334628199796 Li
   0.2812537399999999    0.9286963400000000    0.3188001942299695 Li
   0.7223832671866413    0.5073467814679413    0.6149594194448867 Li
   0.2223832671866410    0.5073467814679413    0.6149594194448867 Li
   0.4723832671866411    0.0073467814679413    0.6149594194448867 Li
   0.9723832671866411    0.0073467814679413    0.6149594194448867 Li
   0.4723832671866413    0.6915573077837309    0.6418341859984709 Li
   0.9723832671866413    0.6915573077837309    0.6418341859984709 Li
   0.2223832671866413    0.1915573077837307    0.6418341859984709 Li
   0.7223832671866413    0.1915573077837307    0.6418341859984709 Li
   0.4723832671866414    0.6389257288363623    0.5612098863377185 Li
   0.9723832671866411    0.6389257288363623    0.5612098863377185 Li
   0.2223832671866410    0.1389257288363623    0.5612098863377185 Li
   0.7223832671866413    0.1389257288363623    0.5612098863377185 Li
   0.2223832671866413    0.8231362551521519    0.5880846528913026 Li
   0.7223832671866411    0.8231362551521517    0.5880846528913026 Li
   0.9723832671866411    0.3231362551521517    0.5880846528913026 Li
   0.4723832671866413    0.3231362551521517    0.5880846528913026 Li
   0.2223832671866410    0.7705046762047835    0.5074603532305503 Li
   0.7223832671866409    0.7705046762047835    0.5074603532305503 Li
   0.9723832671866410    0.2705046762047834    0.5074603532305503 Li
   0.4723832671866409    0.2705046762047834    0.5074603532305503 Li
   0.9723832671866414    0.9547152025205727    0.5343351197841344 Li
   0.4723832671866411    0.9547152025205730    0.5343351197841344 Li
   0.7223832671866413    0.4547152025205728    0.5343351197841344 Li
   0.2223832671866413    0.4547152025205730    0.5343351197841345 Li
   0.9723832671866414    0.9020836235732044    0.4537108201233820 Li
   0.4723832671866410    0.9020836235732044    0.4537108201233820 Li
   0.7223832671866411    0.4020836235732045    0.4537108201233822 Li
   0.2223832671866410    0.4020836235732045    0.4537108201233822 Li
   0.7223832671866413    0.0862941498889938    0.4805855866769662 Li
   0.2223832671866410    0.0862941498889938    0.4805855866769662 Li
   0.4723832671866408    0.5862941498889939    0.4805855866769662 Li
   0.9723832671866409    0.5862941498889941    0.4805855866769662 Li
   0.7223832671866413    0.0336625709416254    0.3999612870162139 Li
   0.2223832671866415    0.0336625709416254    0.3999612870162139 Li
   0.4723832671866414    0.5336625709416254    0.3999612870162139 Li
   0.9723832671866414    0.5336625709416254    0.3999612870162139 Li
   0.4723832671866413    0.2178730972574148    0.4268360535697979 Li
   0.9723832671866411    0.2178730972574148    0.4268360535697979 Li
   0.2223832671866410    0.7178730972574149    0.4268360535697979 Li
   0.7223832671866410    0.7178730972574150    0.4268360535697979 Li
   0.3071058799999998    0.4063681799999999    0.0000000000000000 P
   0.1928941199999998    0.9063681799999997    0.0000000000000000 P
   0.6928941200000001    0.5936318200000001    0.1062667314099899 P
   0.8071058799999998    0.0936318200000002    0.1062667314099899 P
   0.3071058799999997    0.4063681799999999    0.2125334628199796 P
   0.1928941199999997    0.9063681800000000    0.2125334628199796 P
   0.6928941199999998    0.5936318200000003    0.3188001942299695 P
   0.8071058799999997    0.0936318200000003    0.3188001942299695 P
   0.3573319399999998    0.5964969700000001    0.1062667314099899 S
   0.1991333699999998    0.3346929900000000    0.1671560786483398 S
   0.8573319399999998    0.9035030300000000    0.0000000000000000 S
   0.6426680599999999    0.4035030300000000    0.0000000000000000 S
   0.1991333699999998    0.3346929900000000    0.0453773841716401 S
   0.6991333699999999    0.1653070100000002    0.1516441155816298 S
   0.8008666299999999    0.6653070100000001    0.0608893472383498 S
   0.3008666299999997    0.8346929900000003    0.0453773841716401 S
   0.8008666300000000    0.6653070100000001    0.1516441155816298 S
   0.3008666299999999    0.8346929900000003    0.1671560786483398 S
   0.2017864799999997    0.5510709400000000    0.0000000000000000 S
   0.6991333699999999    0.1653070100000001    0.0608893472383498 S
   0.2982135199999997    0.0510709400000001    0.0000000000000000 S
   0.7982135199999998    0.4489290600000000    0.1062667314099899 S
   0.7017864800000000    0.9489290600000001    0.1062667314099899 S
   0.1426680599999997    0.0964969700000001    0.1062667314099899 S
   0.3573319399999998    0.5964969700000001    0.3188001942299695 S
   0.1991333699999997    0.3346929900000001    0.3796895414683195 S
   0.8573319399999999    0.9035030300000003    0.2125334628199796 S
   0.6426680599999998    0.4035030300000000    0.2125334628199796 S
   0.1991333699999998    0.3346929900000001    0.2579108469916197 S
   0.6991333699999998    0.1653070100000002    0.3641775784016097 S
   0.8008666299999998    0.6653070100000001    0.2734228100583295 S
   0.3008666299999997    0.8346929900000003    0.2579108469916197 S
   0.8008666299999998    0.6653070100000001    0.3641775784016097 S
   0.3008666299999997    0.8346929900000001    0.3796895414683195 S
   0.2017864799999997    0.5510709400000000    0.2125334628199796 S
   0.6991333699999998    0.1653070100000001    0.2734228100583295 S
   0.2982135199999997    0.0510709400000001    0.2125334628199796 S
   0.7982135199999997    0.4489290600000001    0.3188001942299695 S
   0.7017864799999995    0.9489290600000001    0.3188001942299695 S
   0.1426680599999996    0.0964969700000001    0.3188001942299695 S
